memory 2 GB

molecule ethane {
0 1 
 C    -0.000830   0.001644  -0.000431 
 H    -0.675983   0.853982  -0.085819 
 H    -0.394563  -0.833668  -0.580781 
 H     0.083930  -0.291376   1.046762 
 H     0.983044   0.277657  -0.381694 
}

set basis 6-311++G(d,p)
energy, wfn = frequency('wb97x-d', return_wfn=True)
set hessian_write on
wfn.hessian().print_out()

