molecule benzene {
 0 1 
 C     1.000000   1.000000   0.000000
 C    -0.395000   1.000000   0.000000
 C    -1.091000   1.000000   1.209000
 C    -0.392000   1.000000   2.415000
 C     1.003000   1.000000   2.412000
 C     1.696000   1.000000   1.209000
 H     1.543000   1.001000  -0.942000
 H    -0.937000   0.999000  -0.942000
 H    -2.178000   1.001000   1.209000
 H    -0.934000   1.001000   3.357000
 H     1.548000   0.999000   3.352000
 H     2.783000   1.001000   1.209000
}

set basis 6-311++G(d,p)
gradient('wb97x-d')