molecule methane {
 0 1 
  C    -0.022000   0.003000   0.017000
  H    -0.669000   0.889000  -0.101000
  H    -0.378000  -0.858000  -0.588000
  H     0.096000  -0.315000   1.064000
  H     0.972000   0.280000  -0.391000
}

set basis 6-311++G(d,p)
gradient('wb97x-d')