molecule ethane {
 0 1 
C          -0.7635531     0.0237588    -0.0242082
C           0.7611939    -0.0165439     0.0264806
H          -1.1966484    -0.0750576     0.9747063
H          -1.1217464     0.9657302    -0.4479045
H          -1.1616027    -0.7879653    -0.6388294
H           1.1591721     0.7951301     0.6412022
H           1.1943486     0.0824186    -0.9723935
H           1.1194166    -0.9585433     0.4500872
}

set basis 6-311++G(d,p)
gradient('wb97x-d')