molecule methane {
 0 1 
C          -0.0008302     0.0016436    -0.0004311
H          -0.6759833     0.8539822    -0.0858193
H          -0.3945625    -0.8336684    -0.5807812
H           0.0839298    -0.2913759     1.0467616
H           0.9830436     0.2776572    -0.3816938
}

set basis 6-311++G(d,p)
gradient('wb97x-d')