memory 2 GB

molecule ethane {
 0 1 
 C    -0.764165   0.012181  -0.013077
 C     0.761775  -0.004375   0.014744
 H    -1.180817  -0.089242   0.992286
 H    -1.143702   0.947202  -0.433866
 H    -1.158305  -0.807895  -0.619116
 H     1.156568   0.815150   0.621201
 H     1.177876   0.097968  -0.990701
 H     1.141131  -0.939742   0.434849
}

set basis 6-311++G(d,p)
frequency('wb97x-d')
set hessian_write on
hessian('wb97x-d')
