memory 2 GB

molecule ethane {
 0 1 
 C    -0.763553   0.023759  -0.024208
 C     0.761194  -0.016544   0.026481
 H    -1.196648  -0.075058   0.974706
 H    -1.121746   0.965730  -0.447904
 H    -1.161603  -0.787965  -0.638829
 H     1.159172   0.795130   0.641202
 H     1.194349   0.082419  -0.972394
 H     1.119417  -0.958543   0.450087
}

set basis 6-311++G(d,p)
frequency('wb97x-d')
set hessian_write on
hessian('wb97x-d')
