memory 2 GB

molecule ethane {
 0 1 
  C    -0.760000  -0.007000  -0.051000
  C     0.743000  -0.034000   0.003000
  H    -1.131000  -0.183000   0.986000
  H    -1.073000   1.019000  -0.324000
  H    -1.201000  -0.789000  -0.683000
  H     1.054000   0.902000   0.547000
  H     1.219000   0.022000  -0.987000
  H     1.149000  -0.931000   0.508000
}

set basis 6-311++G(d,p)
optimize('wb97x-d')
frequency('wb97x-d')
set hessian_write on
hessian('wb97x-d')
